 vasp.5.4.1 24Jun15 (build Sep 15 2015 10:29:54) complex

 executed on           IFC91_ompi date 2017.09.01  09:51:23

 INCAR:
 POTCAR:    PAW_PBE Zn 06Sep2000
 POTCAR:    PAW_PBE S 06Sep2000
 POTCAR:    PAW_PBE Zn 06Sep2000
   VRHFIN =Zn: d10 p2

   TITEL  = PAW_PBE Zn 06Sep2000
   POMASS =   65.390; ZVAL   =   12.000    mass and valenz
   ENMAX  =  276.723; ENMIN  =  207.542 eV

 POTCAR:    PAW_PBE S 06Sep2000
   VRHFIN =S : s2p4

   TITEL  = PAW_PBE S 06Sep2000
   POMASS =   32.066; ZVAL   =    6.000    mass and valenz
   ENMAX  =  258.689; ENMIN  =  194.016 eV

 Optimization of the real space projectors (new method)

 maximal supplied QI-value         = 16.25
 optimisation between [QCUT,QGAM] = [ 11.38, 22.75] = [ 36.24,144.96] Ry
 Optimized for a Real-space Cutoff    1.39 Angstroem

   l    n(q)    QCUT    max X(q) W(low)/X(q) W(high)/X(q)  e(spline)
   2      8    11.376    46.356    0.27E-03    0.53E-04    0.10E-06
   2      8    11.376    41.843    0.28E-03    0.56E-04    0.10E-06
   0      9    11.376    48.958    0.76E-04    0.12E-03    0.19E-06
   0      9    11.376    32.776    0.72E-04    0.11E-03    0.18E-06
   1      9    11.376    17.787    0.48E-03    0.13E-03    0.16E-06
   1      9    11.376    14.435    0.43E-03    0.12E-03    0.15E-06
 Optimization of the real space projectors (new method)

 maximal supplied QI-value         = 19.84
 optimisation between [QCUT,QGAM] = [ 11.31, 22.82] = [ 35.82,145.81] Ry
 Optimized for a Real-space Cutoff    1.16 Angstroem

   l    n(q)    QCUT    max X(q) W(low)/X(q) W(high)/X(q)  e(spline)
   0      8    11.310   187.594    0.35E-03    0.37E-03    0.44E-07
   0      8    11.310   164.243    0.34E-03    0.37E-03    0.44E-07
   1      7    11.310    67.533    0.33E-03    0.37E-03    0.88E-07
   1      7    11.310    50.729    0.32E-03    0.36E-03    0.86E-07

  PAW_PBE Zn 06Sep2000                  :
  PAW_PBE S 06Sep2000                   :

 POSCAR: Zn S
  positions in direct lattice
  velocities in cartesian coordinates
 exchange correlation table for  LEXCH =       14
   RHO(1)=    0.500       N(1)  =     2000
   RHO(2)=  100.500       N(2)  =     4000

 ion  position               nearest neighbor table
   1  0.000  0.000  0.000-   3 2.32   4 2.32   4 2.32   3 2.32
   2  0.500  0.500  0.500-   3 2.32   4 2.32   3 2.32   4 2.32
   3  0.250  0.500  0.000-   1 2.32   2 2.32   2 2.32   1 2.32
   4  0.750  0.000  0.500-   1 2.32   2 2.32   1 2.32   2 2.32

  LATTYP: Found a simple tetragonal cell.
 ALAT       =     3.7844987492
 C/A-ratio  =     1.4183522045

  Lattice vectors:

 A1 = (   0.0000000000,   3.7844987492,   0.0000000000)
 A2 = (   0.0000000000,   0.0000000000,  -3.7844987492)
 A3 = (  -5.3677521439,   0.0000000000,   0.0000000000)

Analysis of symmetry for initial positions (statically):
 Subroutine PRICEL returns following result:

  LATTYP: Found a body centered tetragonal cell.
 ALAT       =     3.7844987492
 C/A-ratio  =     1.4183522045

[...]

   2 primitive cells build up your supercell.

 Routine SETGRP: Setting up the symmetry group for a
 simple tetragonal supercell.

 Subroutine GETGRP returns: Found  8 space group operations
 (whereof  8 operations were pure point group operations)
 out of a pool of 16 trial point group operations.

The static configuration has the point symmetry D_2d.

Analysis of symmetry for dynamics (positions and initial velocities):
 Subroutine PRICEL returns following result:

  LATTYP: Found a body centered tetragonal cell.
 ALAT       =     3.7844987492
 C/A-ratio  =     1.4183522045

  Lattice vectors:

 A1 = (   2.6838760719,   1.8922493746,  -1.8922493746)
 A2 = (   2.6838760719,  -1.8922493746,   1.8922493746)
 A3 = (  -2.6838760719,  -1.8922493746,  -1.8922493746)

   2 primitive cells build up your supercell.

 Routine SETGRP: Setting up the symmetry group for a
 simple tetragonal supercell.

 Subroutine GETGRP returns: Found  8 space group operations
 (whereof  8 operations were pure point group operations)
 out of a pool of 16 trial point group operations.

The dynamic configuration has the point symmetry D_2d.

Automatic generation of k-mesh.
 generate k-points for:    3    4    4
Space group operators:
 irot       det(A)        alpha          n_x          n_y          n_z        tau_x        tau_y        tau_z
    1     1.000000     0.000000     1.000000     0.000000     0.000000     0.000000     0.000000     0.000000
    2    -1.000000    90.000000     1.000000     0.000000     0.000000     0.000000     0.000000     0.000000
    3     1.000000   180.000000     1.000000     0.000000     0.000000     0.000000     0.000000     0.000000
    4    -1.000000    90.000000    -1.000000     0.000000     0.000000     0.000000     0.000000     0.000000
    5    -1.000000   180.000000     0.000000     0.000000     1.000000     0.000000     0.000000     0.000000
    6     1.000000   180.000000     0.000000    -0.707107     0.707107     0.000000     0.000000     0.000000
    7    -1.000000   180.000000     0.000000     1.000000     0.000000     0.000000     0.000000     0.000000
    8     1.000000   180.000000     0.000000     0.707107     0.707107     0.000000     0.000000     0.000000

 Subroutine IBZKPT returns following result:

 Found     12 irreducible k-points:

 Following reciprocal coordinates:
            Coordinates               Weight
  0.000000  0.000000  0.000000      1.000000
  0.333333  0.000000  0.000000      2.000000
  0.000000  0.250000  0.000000      4.000000
  0.333333  0.250000  0.000000      8.000000
  0.000000  0.500000  0.000000      2.000000
  0.333333  0.500000  0.000000      4.000000
  0.000000  0.250000  0.250000      4.000000
  0.333333  0.250000  0.250000      8.000000
  0.000000  0.500000  0.250000      4.000000
  0.333333  0.500000  0.250000      8.000000
  0.000000  0.500000  0.500000      1.000000
  0.333333  0.500000  0.500000      2.000000

 Following cartesian coordinates:
            Coordinates               Weight
  0.000000  0.000000  0.000000      1.000000
  0.062099  0.000000  0.000000      2.000000
  0.000000  0.066059  0.000000      4.000000
  0.062099  0.066059  0.000000      8.000000
  0.000000  0.132118  0.000000      2.000000
  0.062099  0.132118  0.000000      4.000000
  0.000000  0.066059  0.066059      4.000000
  0.062099  0.066059  0.066059      8.000000
  0.000000  0.132118  0.066059      4.000000
  0.062099  0.132118  0.066059      8.000000
  0.000000  0.132118  0.132118      1.000000
  0.062099  0.132118  0.132118      2.000000

 TETIRR: Found     74 inequivalent tetrahedra from      288

 I would recommend the setting:
   dimension x,y,z NGX =    29 NGY =   21 NGZ =   21
 SYSTEM =  Name
 POSCAR =  Zn S

 Startparameter for this run:
   NWRITE =      2    write-flag & timer
   PREC   = single    normal or accurate (medium, high low for compatibility)
   ISTART =      0    job   : 0-new  1-cont  2-samecut
   ICHARG =      2    charge: 1-file 2-atom 10-const
   ISPIN  =      1    spin polarized calculation?
   LNONCOLLINEAR =      F non collinear calculations
   LSORBIT =      F    spin-orbit coupling
   INIWAV =      1    electr: 0-lowe 1-rand  2-diag
   LASPH  =      F    aspherical Exc in radial PAW
   METAGGA=      F    non-selfconsistent MetaGGA calc.

 Electronic Relaxation 1
   ENCUT  =  500.0 eV  36.75 Ry    6.06 a.u.   9.79  6.90  6.90*2*pi/ulx,y,z
   ENINI  =  500.0     initial cutoff
   ENAUG  =  575.9 eV  augmentation charge cutoff
   NELM   =     60;   NELMIN=  2; NELMDL= -5     # of ELM steps
   EDIFF  = 0.1E-05   stopping-criterion for ELM
   LREAL  =      T    real-space projection
   NLSPLINE    = F    spline interpolate recip. space projectors
   LCOMPAT=      F    compatible to vasp.4.4
   GGA_COMPAT  = T    GGA compatible to vasp.4.4-vasp.4.6
   LMAXPAW     = -100 max onsite density
   LMAXMIX     =    2 max onsite mixed and CHGCAR
   VOSKOWN=      0    Vosko Wilk Nusair interpolation
   ROPT   =   -0.00050  -0.00050
 Ionic relaxation
   EDIFFG = 0.1E-02   stopping-criterion for IOM
   NSW    =      0    number of steps for IOM
   NBLOCK =      1;   KBLOCK =      1    inner block; outer block
   IBRION =     -1    ionic relax: 0-MD 1-quasi-New 2-CG
   NFREE  =      0    steps in history (QN), initial steepest desc. (CG)
   ISIF   =      3    stress and relaxation
   IWAVPR =     10    prediction:  0-non 1-charg 2-wave 3-comb
   ISYM   =      2    0-nonsym 1-usesym 2-fastsym
   LCORR  =      T    Harris-Foulkes like correction to forces

   POTIM  = 0.5000    time-step for ionic-motion
   TEIN   =    0.0    initial temperature
   TEBEG  =    0.0;   TEEND  =   0.0 temperature during run
   SMASS  =  -3.00    Nose mass-parameter (am)
   estimated Nose-frequenzy (Omega)   =  0.10E-29 period in steps =****** mass=  -0.658E-27a.u.
   SCALEE = 1.0000    scale energy and forces
   NPACO  =    256;   APACO  = 16.0  distance and # of slots for P.C.
   PSTRESS=    0.0 pullay stress

  Mass of Ions in am
   POMASS =  65.39 32.07
  Ionic Valenz
   ZVAL   =  12.00  6.00
  Atomic Wigner-Seitz radii
  virtual crystal weights
   VCA    =   1.00  1.00
   NELECT =      36.0000    total number of electrons
   NUPDOWN=      -1.0000    fix difference up-down

 DOS related values:
   EMIN   =  10.00;   EMAX   =-10.00  energy-range for DOS
   EFERMI =   0.00
   ISMEAR =    -5;   SIGMA  =   0.10  broadening in eV -4-tet -1-fermi 0-gaus

 Electronic relaxation 2 (details)
   IALGO  =     38    algorithm
   LDIAG  =      T    sub-space diagonalisation (order eigenvalues)
   LSUBROT=      F    optimize rotation matrix (better conditioning)
   TURBO    =      0    0=normal 1=particle mesh
   IRESTART =      0    0=no restart 2=restart with 2 vectors
   NREBOOT  =      0    no. of reboots
   NMIN     =      0    reboot dimension
   EREF     =   0.00    reference energy to select bands
   IMIX   =      4    mixing-type and parameters
     AMIX     =   0.40;   BMIX     =  1.00
     AMIX_MAG =   1.60;   BMIX_MAG =  1.00
     AMIN     =   0.01
     WC   =   100.;   INIMIX=   1;  MIXPRE=   1;  MAXMIX= -45

 Intra band minimization:
   WEIMIN = 0.0000     energy-eigenvalue tresh-hold
   EBREAK =  0.11E-07  absolut break condition
   DEPER  =   0.30     relativ break condition

   TIME   =   0.40     timestep for ELM

  volume/ion in A,a.u.               =      19.22       129.70
  Fermi-wavevector in a.u.,A,eV,Ry     =   1.271274  2.402360 21.988897  1.616138
  Thomas-Fermi vector in A             =   2.404216

 Write flags
   LWAVE  =      T    write WAVECAR
   LCHARG =      T    write CHGCAR
   LVTOT  =      F    write LOCPOT, total local potential
   LVHAR  =      F    write LOCPOT, Hartree potential only
   LELF   =      F    write electronic localiz. function (ELF)
   LORBIT =     10    0 simple, 1 ext, 2 COOP (PROOUT)

 Dipole corrections
   LMONO  =      F    monopole corrections only (constant potential shift)
   LDIPOL =      F    correct potential (dipole corrections)
   IDIPOL =      0    1-x, 2-y, 3-z, 4-all directions
   EPSILON=  1.0000000 bulk dielectric constant

 Core level calculations are selected ICORELEVEL =  1
 Exchange correlation treatment:
   GGA     =    PS    GGA type
   VOSKOWN=      0    Vosko Wilk Nusair interpolation
   LHFCALC =     F    Hartree Fock is set to
   LHFONE  =     F    Hartree Fock one center treatment
   AEXX    =    0.0000 exact exchange contribution

 Linear response parameters
   LEPSILON=     F    determine dielectric tensor
   LRPA    =     F    only Hartree local field effects (RPA)
   LNABLA  =     F    use nabla operator in PAW spheres
   LVEL    =     F    velocity operator in full k-point grid
   LINTERFAST=   F  fast interpolation
   KINTER  =     0    interpolate to denser k-point grid
   CSHIFT  =0.1000    complex shift for real part using Kramers Kronig
   OMEGAMAX=  -1.0    maximum frequency
   DEG_THRESHOLD= 0.2000000E-02 threshold for treating states as degnerate
   RTIME   =    0.100 relaxation time in fs

 Orbital magnetization related:
   ORBITALMAG=     F  switch on orbital magnetization
   LCHIMAG   =     F  perturbation theory with respect to B field
   DQ        =  0.001000  dq finite difference perturbation B field

 Static calculation
 charge density and potential will be updated during run
 non-spin polarized calculation
 Variant of blocked Davidson
 Davidson routine will perform the subspace rotation
 perform sub-space diagonalisation
    after iterative eigenvector-optimisation
 modified Broyden-mixing scheme, WC =      100.0
 initial mixing is a Kerker type mixing with AMIX =  0.4000 and BMIX =      1.0000
 Hartree-type preconditioning will be used
 using additional bands            4
 real space projection scheme for non local part
 use partial core corrections
 calculate Harris-corrections to forces
   (improved forces if not selfconsistent)
 use gradient corrections
 use of overlap-Matrix (Vanderbilt PP)
 Fermi weights with tetrahedron method with Bloechl corrections

  energy-cutoff  :      500.00
  volume of cell :       76.88
      direct lattice vectors                 reciprocal lattice vectors
     5.367752144  0.000000000  0.000000000     0.186297723  0.000000000  0.000000000
     0.000000000  3.784498749  0.000000000     0.000000000  0.264235786  0.000000000
     0.000000000  0.000000000  3.784498749     0.000000000  0.000000000  0.264235786

  length of vectors
     5.367752144  3.784498749  3.784498749     0.186297723  0.264235786  0.264235786

 k-points in units of 2pi/SCALE and weight: read from INCAR
   0.00000000  0.00000000  0.00000000       0.021
   0.06209924  0.00000000  0.00000000       0.042
   0.00000000  0.06605895  0.00000000       0.083
   0.06209924  0.06605895  0.00000000       0.167
   0.00000000  0.13211789  0.00000000       0.042
   0.06209924  0.13211789  0.00000000       0.083
   0.00000000  0.06605895  0.06605895       0.083
   0.06209924  0.06605895  0.06605895       0.167
   0.00000000  0.13211789  0.06605895       0.083
   0.06209924  0.13211789  0.06605895       0.167
   0.00000000  0.13211789  0.13211789       0.021
   0.06209924  0.13211789  0.13211789       0.042

 k-points in reciprocal lattice and weights: read from INCAR
   0.00000000  0.00000000  0.00000000       0.021
   0.33333333  0.00000000  0.00000000       0.042
   0.00000000  0.25000000  0.00000000       0.083
   0.33333333  0.25000000  0.00000000       0.167
   0.00000000  0.50000000  0.00000000       0.042
   0.33333333  0.50000000  0.00000000       0.083
   0.00000000  0.25000000  0.25000000       0.083
   0.33333333  0.25000000  0.25000000       0.167
   0.00000000  0.50000000  0.25000000       0.083
   0.33333333  0.50000000  0.25000000       0.167
   0.00000000  0.50000000  0.50000000       0.021
   0.33333333  0.50000000  0.50000000       0.042

 position of ions in fractional coordinates (direct lattice)
   0.00000000  0.00000000  0.00000000
   0.50000000  0.50000000  0.50000000
   0.25000000  0.50000000  0.00000000
   0.75000000  0.00000000  0.50000000

 position of ions in cartesian coordinates  (Angst):
   0.00000000  0.00000000  0.00000000
   2.68387607  1.89224937  1.89224937
   1.34193804  1.89224937  0.00000000
   4.02581411  0.00000000  1.89224937

 k-point  1 :   0.0000 0.0000 0.0000  plane waves:    1923
 k-point  2 :   0.3333 0.0000 0.0000  plane waves:    1952
 k-point  3 :   0.0000 0.2500 0.0000  plane waves:    1940
 k-point  4 :   0.3333 0.2500 0.0000  plane waves:    1947
 k-point  5 :   0.0000 0.5000 0.0000  plane waves:    1958
 k-point  6 :   0.3333 0.5000 0.0000  plane waves:    1954
 k-point  7 :   0.0000 0.2500 0.2500  plane waves:    1958
 k-point  8 :   0.3333 0.2500 0.2500  plane waves:    1957
 k-point  9 :   0.0000 0.5000 0.2500  plane waves:    1958
 k-point 10 :   0.3333 0.5000 0.2500  plane waves:    1956
 k-point 11 :   0.0000 0.5000 0.5000  plane waves:    1964
 k-point 12 :   0.3333 0.5000 0.5000  plane waves:    1956

 maximum and minimum number of plane-waves per node :       516      465

 maximum number of plane-waves:      1964
 maximum index in each direction:
   IXMAX=    9   IYMAX=    6   IZMAX=    6
   IXMIN=  -10   IYMIN=   -7   IZMIN=   -7

 WARNING: aliasing errors must be expected set NGX to  40 to avoid them
 WARNING: aliasing errors must be expected set NGY to  28 to avoid them
 WARNING: aliasing errors must be expected set NGZ to  28 to avoid them
 aliasing errors are usually negligible using standard VASP settings
 and one can safely disregard these warnings

 real space projection operators:
  max/ min on nodes  :        239.62        200.11

 parallel 3D FFT for wavefunctions:
    minimum data exchange during FFTs selected (reduces bandwidth)
 parallel 3D FFT for charge:
    minimum data exchange during FFTs selected (reduces bandwidth)

 Broyden mixing: mesh for mixing (old mesh)
   NGX = 19   NGY = 13   NGZ = 13
  (NGX  = 30   NGY  = 24   NGZ  = 24)
  gives a total of   3211 points

 initial charge density was supplied:
 charge density of overlapping atoms calculated
 number of electron      36.0000000 magnetization
 keeping initial charge density in first step

 Maximum index for non-local projection operator          736
 Maximum index for augmentation-charges          121 (set IRDMAX)

 First call to EWALD:  gamma=   0.417
 Maximum number of real-space cells 2x 3x 3
 Maximum number of reciprocal cells 3x 2x 2

 FEWALD executed in parallel

----------------------------------------- Iteration    1(   1)  ---------------------------------------

 BZINTS: Fermi energy: 16.525789; 36.000000 electrons
         Band energy: 145.647346;  BLOECHL correction: -0.220221

 eigenvalue-minimisations  :   528
 total energy-change (2. order) : 0.2359824E+03  (-0.1748254E+04)
 number of electron      36.0000000 magnetization
 augmentation part       36.0000000 magnetization

 Free energy of the ion-electron system (eV)
  alpha Z        PSCENC =       147.08766935
  Ewald energy   TEWEN  =     -2528.63530262
  -Hartree energ DENC   =     -1368.65072340
  -exchange      EXHF   =         0.00000000
  -V(xc)+E(xc)   XCENC  =       140.96226215
  PAW double counting   =      3343.44361914    -3692.01684003
  entropy T*S    EENTRO =         0.00000000
  eigenvalues    EBANDS =       145.64734629
  atomic energy  EATOM  =      4048.14435094
  Solvation  Ediel_sol  =         0.00000000
  free energy    TOTEN  =       235.98238182 eV

  energy without entropy =      235.98238182  energy(sigma->0) =      235.98238182

[...]

 BZINTS: Fermi energy:  4.727895; 36.000000 electrons
         Band energy: -84.659187;  BLOECHL correction:  0.000000

 eigenvalue-minimisations  :   570
 total energy-change (2. order) :-0.2303065E+03  (-0.2251399E+03)
 number of electron      36.0000000 magnetization
 augmentation part       36.0000000 magnetization

[...]

 BZINTS: Fermi energy:  1.886510; 36.000000 electrons
         Band energy:-105.827228;  BLOECHL correction:  0.000000

[...]

 Broyden mixing:
  rms(total) = 0.99012E+00    rms(broyden)= 0.99005E+00
  rms(prec ) = 0.12927E+01
  weight for this iteration     100.00

[...]

 eigenvalues of (default mixing * dielectric matrix)
  average eigenvalue GAMMA=   2.0605
  2.0605

[...]

 eigenvalue-minimisations  :   642
 total energy-change (2. order) : 0.4701885E-05  (-0.3753115E-05)
 number of electron      36.0004514 magnetization
 augmentation part       14.4158840 magnetization

[...]

 Broyden mixing:
  rms(total) = 0.48210E-03    rms(broyden)= 0.48210E-03
  rms(prec ) = 0.50813E-03
  weight for this iteration     100.00

 eigenvalues of (default mixing * dielectric matrix)
  average eigenvalue GAMMA=   1.6529
  3.1097  2.7245  2.3390  1.0427  1.0427  1.1097  0.9274  0.9274

[...]

----------------------------------------- Iteration    1(  14)  ---------------------------------------

[...]

 eigenvalue-minimisations  :   372
 total energy-change (2. order) :-0.4030790E-07  (-0.5151921E-07)
 number of electron      36.0004514 magnetization
 augmentation part       14.4157890 magnetization

 Free energy of the ion-electron system (eV)
  alpha Z        PSCENC =       147.08766935
  Ewald energy   TEWEN  =     -2528.63530262
  -Hartree energ DENC   =     -1352.36553394
  -exchange      EXHF   =         0.00000000
  -V(xc)+E(xc)   XCENC  =       141.03707478
  PAW double counting   =      4300.78152121    -4650.14678577
  entropy T*S    EENTRO =         0.00000000
  eigenvalues    EBANDS =      -121.05360360
  atomic energy  EATOM  =      4048.14435094
  Solvation  Ediel_sol  =         0.00000000
  free energy    TOTEN  =       -15.15060963 eV

  energy without entropy =      -15.15060963  energy(sigma->0) =      -15.15060963

 the core state eigenenergies are
   1-  1s  -9518.2111  2s  -1151.7432  2p   -997.3961  3s   -122.7632  3p    -76.9257

   2-  1s  -9518.2111  2s  -1151.7432  2p   -997.3961  3s   -122.7632  3p    -76.9257

   3-  1s  -2396.4464  2s   -202.5623  2p   -147.3299
   4-  1s  -2396.4464  2s   -202.5623  2p   -147.3299

 E-fermi :   2.3405     XC(G=0):  -9.9657     alpha+bet : -8.2695

 k-point     1 :       0.0000    0.0000    0.0000
  band No.  band energies     occupation
      1     -11.0704      2.00000
      2      -9.7419      2.00000
      3      -4.2865      2.00000
      4      -4.2186      2.00000
      5      -4.2166      2.00000
      6      -4.2166      2.00000
      7      -3.8524      2.00000
      8      -3.8524      2.00000
      9      -3.6939      2.00000
     10      -3.6860      2.00000
     11      -3.6054      2.00000
     12      -3.4660      2.00000
     13      -2.4600      2.00000
     14      -0.0656      2.00000
     15      -0.0656      2.00000
     16       2.2626      2.00000
     17       2.2761      2.00000
     18       2.2761      2.00000
     19       4.3586      0.00000
     20       5.4531      0.00000
     21       6.2492      0.00000
     22       8.5539      0.00000

[...]

 k-point    12 :       0.3333    0.5000    0.5000
  band No.  band energies     occupation
      1      -9.7320      2.00000
      2      -9.7320      2.00000
      3      -4.1410      2.00000
      4      -4.1410      2.00000
      5      -3.9072      2.00000
      6      -3.9072      2.00000
      7      -3.8174      2.00000
      8      -3.8174      2.00000
      9      -3.6678      2.00000
     10      -3.6678      2.00000
     11      -3.3070      2.00000
     12      -3.3070      2.00000
     13      -2.4761      2.00000
     14      -2.4761      2.00000
     15      -0.5256      2.00000
     16      -0.5256      2.00000
     17      -0.4755      2.00000
     18      -0.4755      2.00000
     19       6.9329      0.00000
     20       6.9329      0.00000
     21       7.5845      0.00000
     22       7.5845      0.00000

 soft charge-density along one line, spin component           1
         0         1         2         3         4         5         6         7         8         9
 total charge-density along one line

------------------------ aborting loop because EDIFF is reached ----------------------------------------

 total charge

# of ion     s       p       d       tot
  1        0.531   0.505   9.802  10.838
  2        0.531   0.505   9.802  10.838
  3        1.306   2.427   0.000   3.734
  4        1.306   2.427   0.000   3.734
tot        3.675   5.865  19.603  29.143

  FORCE on cell =-STRESS in cart. coord.  units (eV):
  Direction    XX          YY          ZZ          XY          YZ          ZX
  Alpha Z   147.08767   147.08767   147.08767
  Ewald    -841.05767  -843.78978  -843.78978    -0.00000     0.00000    -0.00000
  Hartree   451.65115   450.35751   450.35750    -0.00000    -0.00000    -0.00000
  E(xc)    -184.37495  -184.37568  -184.37568     0.00000     0.00000    -0.00000
  Local      -0.28216     3.27281     3.27281     0.00000    -0.00000    -0.00000
  n-local    78.38213    75.88403    81.00957    -0.58985    -0.00129     0.18368
  augment    45.01575    44.78067    44.78067     0.00000     0.00000    -0.00000
  Kinetic   303.62807   298.83695   309.63609    -0.54146    -0.82498     1.04697
  Fock        0.00000     0.00000     0.00000     0.00000     0.00000     0.00000
  Total       0.04999     0.01652     0.01652     0.00000     0.00000     0.00000
  in kB       1.04175     0.34427     0.34427     0.00000     0.00000     0.00000

 VOLUME and BASIS-vectors are now :
  energy-cutoff  :      500.00
  volume of cell :       76.88
      direct lattice vectors                 reciprocal lattice vectors
     5.367752144  0.000000000  0.000000000     0.186297723  0.000000000  0.000000000
     0.000000000  3.784498749  0.000000000     0.000000000  0.264235786  0.000000000
     0.000000000  0.000000000  3.784498749     0.000000000  0.000000000  0.264235786

  length of vectors
     5.367752144  3.784498749  3.784498749     0.186297723  0.264235786  0.264235786

 FORCES acting on ions
    electron-ion (+dipol)            ewald-force                    non-local-force                 convergence-correction
   0.224E-04 0.193E-15 -.207E-13   0.568E-13 -.519E-14 0.205E-14   0.347E-17 0.173E-17 0.000E+00   0.189E-12 -.346E-13 0.328E-13
   0.224E-04 0.256E-11 0.253E-11   0.568E-13 0.187E-14 0.528E-14   0.347E-17 0.173E-17 0.000E+00   0.132E-13 -.127E-13 0.327E-13
   0.112E-03 -.938E-14 0.728E-04   -.599E-13 0.304E-14 -.480E-14   0.000E+00 -.694E-17 -.104E-16   0.376E-13 -.259E-14 0.470E-14
   0.112E-03 -.281E-14 0.728E-04   -.538E-13 0.283E-14 -.329E-14   0.000E+00 -.694E-17 0.347E-17   0.108E-12 0.457E-14 -.189E-14
   0.269E-03 0.255E-11 0.146E-03   -.131E-16 0.254E-14 -.760E-15   0.694E-17 -.104E-16 -.694E-17   0.348E-12 -.453E-13 0.683E-13

 POSITION                                       TOTAL-FORCE (eV/Angst)
      0.00000      0.00000      0.00000         0.000000      0.000000      0.000000
      2.68388      1.89225      1.89225         0.000000      0.000000      0.000000
      1.34194      1.89225      0.00000        -0.000000     -0.000000     -0.000000
      4.02581      0.00000      1.89225        -0.000000     -0.000000     -0.000000
    total drift:                                0.000269      0.000000      0.000146

  FREE ENERGIE OF THE ION-ELECTRON SYSTEM (eV)
  free  energy   TOTEN  =       -15.15060963 eV

  energy  without entropy=      -15.15060963  energy(sigma->0) =      -15.15060963

 writing wavefunctions

 total charge

# of ion     s       p       d       tot
  1        0.531   0.505   9.802  10.838
  2        0.531   0.505   9.802  10.838
  3        1.306   2.427   0.000   3.734
  4        1.306   2.427   0.000   3.734
tot        3.675   5.865  19.603  29.143

 BZINTS: Fermi energy:  2.340473; 36.000000 electrons
         Band energy:-121.053604;  BLOECHL correction:  0.000000