 vasp.5.4.1 24Jun15 (build Sep 15 2015 10:29:54) complex

 executed on           IFC91_ompi date 2015.10.07  17:34:07

 INCAR:
 POTCAR:    PAW_PBE Zn 06Sep2000
 POTCAR:    PAW_PBE Se 06Sep2000

 POTCAR:    PAW_PBE Zn 06Sep2000
   VRHFIN =Zn: d10 p2

   TITEL  = PAW_PBE Zn 06Sep2000
   POMASS =   65.390; ZVAL   =   12.000    mass and valenz
   ENMAX  =  276.723; ENMIN  =  207.542 eV

 POTCAR:    PAW_PBE Se 06Sep2000
   VRHFIN =Se: s2p4

   TITEL  = PAW_PBE Se 06Sep2000
   POMASS =   78.960; ZVAL   =    6.000    mass and valenz
   ENMAX  =  211.555; ENMIN  =  158.666 eV

  PAW_PBE Zn 06Sep2000                  :
  PAW_PBE Se 06Sep2000                  :

 POSCAR: Zn Se
  positions in direct lattice
  velocities in cartesian coordinates
 exchange correlation table for  LEXCH =       14
   RHO(1)=    0.500       N(1)  =     2000
   RHO(2)=  100.500       N(2)  =     4000

 ion  position               nearest neighbor table
   1  0.000  0.000  0.000-   3 2.44   4 2.44   4 2.44   3 2.44
   2  0.500  0.500  0.500-   3 2.44   4 2.44   3 2.44   4 2.44
   3  0.250  0.500  0.000-   1 2.44   2 2.44   2 2.44   1 2.44
   4  0.750  0.000  0.500-   1 2.44   2 2.44   1 2.44   2 2.44

  LATTYP: Found a simple tetragonal cell.
 ALAT       =     3.9906989187
 C/A-ratio  =     1.4145658605

  Lattice vectors:

 A1 = (   0.0000000000,   3.9906989187,   0.0000000000)
 A2 = (   0.0000000000,   0.0000000000,  -3.9906989187)
 A3 = (  -5.6451064499,   0.0000000000,   0.0000000000)

Analysis of symmetry for initial positions (statically):
 Subroutine PRICEL returns following result:

  LATTYP: Found a body centered tetragonal cell.
 ALAT       =     3.9906989187
 C/A-ratio  =     1.4145658605

[...]

   2 primitive cells build up your supercell.

 Routine SETGRP: Setting up the symmetry group for a
 simple tetragonal supercell.

 Subroutine GETGRP returns: Found  8 space group operations
 (whereof  8 operations were pure point group operations)
 out of a pool of 16 trial point group operations.

The static configuration has the point symmetry D_2d.

Analysis of symmetry for dynamics (positions and initial velocities):
 Subroutine PRICEL returns following result:

  LATTYP: Found a body centered tetragonal cell.
 ALAT       =     3.9906989187
 C/A-ratio  =     1.4145658605

  Lattice vectors:

 A1 = (   2.8225532250,   1.9953494594,  -1.9953494594)
 A2 = (   2.8225532250,  -1.9953494594,   1.9953494594)
 A3 = (  -2.8225532250,  -1.9953494594,  -1.9953494594)

   2 primitive cells build up your supercell.

 Routine SETGRP: Setting up the symmetry group for a
 simple tetragonal supercell.

 Subroutine GETGRP returns: Found  8 space group operations
 (whereof  8 operations were pure point group operations)
 out of a pool of 16 trial point group operations.

The dynamic configuration has the point symmetry D_2d.

 KPOINTS: Automatically generated k-point mesh

Automatic generation of k-mesh.
Space group operators:
 irot       det(A)        alpha          n_x          n_y          n_z        tau_x        tau_y        tau_z
    1     1.000000     0.000000     1.000000     0.000000     0.000000     0.000000     0.000000     0.000000
    2    -1.000000    90.000000     1.000000     0.000000     0.000000     0.000000     0.000000     0.000000
    3     1.000000   179.999999     1.000000     0.000000     0.000000     0.000000     0.000000     0.000000
    4    -1.000000    90.000000    -1.000000     0.000000     0.000000     0.000000     0.000000     0.000000
    5    -1.000000   180.000000     0.000000     0.000000     1.000000     0.000000     0.000000     0.000000
    6     1.000000   180.000000     0.000000    -0.707107     0.707107     0.000000     0.000000     0.000000
    7    -1.000000   180.000000     0.000000     1.000000     0.000000     0.000000     0.000000     0.000000
    8     1.000000   180.000000     0.000000     0.707107     0.707107     0.000000     0.000000     0.000000

 Subroutine IBZKPT returns following result:

 Found     30 irreducible k-points:

 Following reciprocal coordinates:
            Coordinates               Weight
  0.000000  0.000000  0.000000      1.000000
  0.200000  0.000000  0.000000      2.000000
  0.400000  0.000000  0.000000      2.000000
  0.000000  0.142857  0.000000      4.000000
  0.200000  0.142857  0.000000      8.000000
  0.400000  0.142857  0.000000      8.000000
  0.000000  0.285714  0.000000      4.000000
  0.200000  0.285714  0.000000      8.000000
  0.400000  0.285714  0.000000      8.000000
  0.000000  0.428571  0.000000      4.000000
  0.200000  0.428571  0.000000      8.000000
  0.400000  0.428571  0.000000      8.000000
  0.000000  0.142857  0.142857      4.000000
  0.200000  0.142857  0.142857      8.000000
  0.400000  0.142857  0.142857      8.000000
  0.000000  0.285714  0.142857      8.000000
  0.200000  0.285714  0.142857     16.000000
  0.400000  0.285714  0.142857     16.000000
  0.000000  0.428571  0.142857      8.000000
  0.200000  0.428571  0.142857     16.000000
  0.400000  0.428571  0.142857     16.000000
  0.000000  0.285714  0.285714      4.000000
  0.200000  0.285714  0.285714      8.000000
  0.400000  0.285714  0.285714      8.000000
  0.000000  0.428571  0.285714      8.000000
  0.200000  0.428571  0.285714     16.000000
  0.400000  0.428571  0.285714     16.000000
  0.000000  0.428571  0.428571      4.000000
  0.200000  0.428571  0.428571      8.000000
  0.400000  0.428571  0.428571      8.000000

 Following cartesian coordinates:
            Coordinates               Weight
  0.000000  0.000000  0.000000      1.000000
  0.035429  0.000000  0.000000      2.000000
  0.070858  0.000000  0.000000      2.000000
  0.000000  0.035798  0.000000      4.000000
  0.035429  0.035798  0.000000      8.000000
  0.070858  0.035798  0.000000      8.000000
  0.000000  0.071595  0.000000      4.000000
  0.035429  0.071595  0.000000      8.000000
  0.070858  0.071595  0.000000      8.000000
  0.000000  0.107393  0.000000      4.000000
  0.035429  0.107393  0.000000      8.000000
  0.070858  0.107393  0.000000      8.000000
  0.000000  0.035798  0.035798      4.000000
  0.035429  0.035798  0.035798      8.000000
  0.070858  0.035798  0.035798      8.000000
  0.000000  0.071595  0.035798      8.000000
  0.035429  0.071595  0.035798     16.000000
  0.070858  0.071595  0.035798     16.000000
  0.000000  0.107393  0.035798      8.000000
  0.035429  0.107393  0.035798     16.000000
  0.070858  0.107393  0.035798     16.000000
  0.000000  0.071595  0.071595      4.000000
  0.035429  0.071595  0.071595      8.000000
  0.070858  0.071595  0.071595      8.000000
  0.000000  0.107393  0.071595      8.000000
  0.035429  0.107393  0.071595     16.000000
  0.070858  0.107393  0.071595     16.000000
  0.000000  0.107393  0.107393      4.000000
  0.035429  0.107393  0.107393      8.000000
  0.070858  0.107393  0.107393      8.000000

 I would recommend the setting:
   dimension x,y,z NGX =    31 NGY =   22 NGZ =   22
 SYSTEM =  Name
 POSCAR =  Zn Se

 Startparameter for this run:
   NWRITE =      2    write-flag & timer
   PREC   = single    normal or accurate (medium, high low for compatibility)
   ISTART =      0    job   : 0-new  1-cont  2-samecut
   ICHARG =      2    charge: 1-file 2-atom 10-const
   ISPIN  =      1    spin polarized calculation?
   LNONCOLLINEAR =      F non collinear calculations
   LSORBIT =      F    spin-orbit coupling
   INIWAV =      1    electr: 0-lowe 1-rand  2-diag
   LASPH  =      F    aspherical Exc in radial PAW
   METAGGA=      F    non-selfconsistent MetaGGA calc.

 Electronic Relaxation 1
   ENCUT  =  500.0 eV  36.75 Ry    6.06 a.u.  10.29  7.28  7.28*2*pi/ulx,y,z
   ENINI  =  500.0     initial cutoff
   ENAUG  =  575.9 eV  augmentation charge cutoff
   NELM   =     60;   NELMIN=  2; NELMDL= -5     # of ELM steps
   EDIFF  = 0.1E-05   stopping-criterion for ELM
   LREAL  =      F    real-space projection
   NLSPLINE    = F    spline interpolate recip. space projectors
   LCOMPAT=      F    compatible to vasp.4.4
   GGA_COMPAT  = T    GGA compatible to vasp.4.4-vasp.4.6
   LMAXPAW     = -100 max onsite density
   LMAXMIX     =    2 max onsite mixed and CHGCAR
   VOSKOWN=      0    Vosko Wilk Nusair interpolation
   ROPT   =    0.00000   0.00000
 Ionic relaxation
   EDIFFG = 0.1E-02   stopping-criterion for IOM
   NSW    =      0    number of steps for IOM
   NBLOCK =      1;   KBLOCK =      1    inner block; outer block
   IBRION =     -1    ionic relax: 0-MD 1-quasi-New 2-CG
   NFREE  =      0    steps in history (QN), initial steepest desc. (CG)
   ISIF   =      3    stress and relaxation
   IWAVPR =     10    prediction:  0-non 1-charg 2-wave 3-comb
   ISYM   =      2    0-nonsym 1-usesym 2-fastsym
   LCORR  =      T    Harris-Foulkes like correction to forces

   POTIM  = 0.5000    time-step for ionic-motion
   TEIN   =    0.0    initial temperature
   TEBEG  =    0.0;   TEEND  =   0.0 temperature during run
   SMASS  =  -3.00    Nose mass-parameter (am)
   estimated Nose-frequenzy (Omega)   =  0.10E-29 period in steps =****** mass=  -0.728E-27a.u.
   SCALEE = 1.0000    scale energy and forces
   NPACO  =    256;   APACO  = 16.0  distance and # of slots for P.C.
   PSTRESS=    0.0 pullay stress

  Mass of Ions in am
   POMASS =  65.39 78.96
  Ionic Valenz
   ZVAL   =  12.00  6.00
  Atomic Wigner-Seitz radii
  virtual crystal weights
   VCA    =   1.00  1.00
   NELECT =      36.0000    total number of electrons
   NUPDOWN=      -1.0000    fix difference up-down

 DOS related values:
   EMIN   =  10.00;   EMAX   =-10.00  energy-range for DOS
   EFERMI =   0.00
   ISMEAR =     0;   SIGMA  =   0.01  broadening in eV -4-tet -1-fermi 0-gaus

 Electronic relaxation 2 (details)
   IALGO  =     38    algorithm
   LDIAG  =      T    sub-space diagonalisation (order eigenvalues)
   LSUBROT=      F    optimize rotation matrix (better conditioning)
   TURBO    =      0    0=normal 1=particle mesh
   IRESTART =      0    0=no restart 2=restart with 2 vectors
   NREBOOT  =      0    no. of reboots
   NMIN     =      0    reboot dimension
   EREF     =   0.00    reference energy to select bands
   IMIX   =      4    mixing-type and parameters
     AMIX     =   0.40;   BMIX     =  1.00
     AMIX_MAG =   1.60;   BMIX_MAG =  1.00
     AMIN     =   0.01
     WC   =   100.;   INIMIX=   1;  MIXPRE=   1;  MAXMIX= -45

 Intra band minimization:
   WEIMIN = 0.0000     energy-eigenvalue tresh-hold
   EBREAK =  0.11E-07  absolut break condition
   DEPER  =   0.30     relativ break condition

   TIME   =   0.40     timestep for ELM

  volume/ion in A,a.u.               =      22.48       151.67
  Fermi-wavevector in a.u.,A,eV,Ry     =   1.206662  2.280261 19.810535  1.456033
  Thomas-Fermi vector in A             =   2.342323

 Write flags
   LWAVE  =      F    write WAVECAR
   LCHARG =      T    write CHGCAR
   LVTOT  =      F    write LOCPOT, total local potential
   LVHAR  =      T    write LOCPOT, Hartree potential only
   LELF   =      F    write electronic localiz. function (ELF)
   LORBIT =     10    0 simple, 1 ext, 2 COOP (PROOUT)

 Dipole corrections
   LMONO  =      F    monopole corrections only (constant potential shift)
[...]
  E(xc)    -186.59619  -186.59147  -186.59147     0.00000     0.00000    -0.00000
  Local      -8.17689    -7.82620    -7.82620     0.00000     0.00000    -0.00000
  n-local    17.49075    15.96218    19.04552    -0.54522    -0.03746     0.16379
  augment    70.83696    70.62898    70.62898     0.00000    -0.00000     0.00000
  Kinetic   283.37000   278.31615   288.51491    -0.78247    -1.23568     1.44606
  Fock        0.00000     0.00000     0.00000     0.00000     0.00000     0.00000
  Total       0.10273    -0.04345    -0.04345     0.00000     0.00000     0.00000
  in kB       1.83085    -0.77429    -0.77429     0.00000     0.00000     0.00000

 VOLUME and BASIS-vectors are now :
  energy-cutoff  :      500.00
  volume of cell :       89.90
      direct lattice vectors                 reciprocal lattice vectors
     5.645106450  0.000000000  0.000000000     0.177144578  0.000000000  0.000000000
     0.000000000  3.990698919  0.000000000     0.000000000  0.250582672  0.000000000
     0.000000000  0.000000000  3.990698919     0.000000000  0.000000000  0.250582672

  length of vectors
     5.645106450  3.990698919  3.990698919     0.177144578  0.250582672  0.250582672

 FORCES acting on ions
    electron-ion (+dipol)            ewald-force                    non-local-force                 convergence-correction
   0.702E-05 -.465E-14 0.106E-13   0.284E-13 0.338E-14 -.593E-14   0.000E+00 0.173E-17 0.000E+00   0.256E-13 0.456E-13 0.222E-13
   0.702E-05 0.227E-11 0.115E-11   0.284E-13 0.464E-14 -.297E-14   0.000E+00 0.173E-17 0.000E+00   -.151E-13 0.444E-13 0.418E-13
   0.761E-04 0.506E-13 -.284E-12   -.300E-13 -.502E-14 0.360E-14   0.000E+00 -.347E-17 0.867E-17   -.949E-14 -.498E-14 0.129E-13
   0.761E-04 -.139E-13 -.194E-12   -.268E-13 -.651E-14 0.500E-14   0.000E+00 -.347E-17 0.520E-17   0.623E-13 -.424E-14 0.136E-13
   0.166E-03 0.230E-11 0.683E-12   0.299E-16 -.351E-14 -.297E-15   0.000E+00 -.347E-17 0.139E-16   0.633E-13 0.809E-13 0.904E-13

 POSITION                                       TOTAL-FORCE (eV/Angst)
      0.00000      0.00000      0.00000         0.000000     -0.000000      0.000000
      2.82255      1.99535      1.99535         0.000000      0.000000     -0.000000
      1.41128      1.99535      0.00000        -0.000000     -0.000000      0.000000
      4.23383      0.00000      1.99535        -0.000000     -0.000000      0.000000
    total drift:                                0.000166      0.000000      0.000000

  FREE ENERGIE OF THE ION-ELECTRON SYSTEM (eV)
  free  energy   TOTEN  =       -13.54344777 eV

  energy  without entropy=      -13.54344777  energy(sigma->0) =      -13.54344777

 plasma frequency squared (from intraband transitions)
       0.000      -0.000       0.000
      -0.000       0.000       0.000
       0.000       0.000       0.000

 electrical conductivity sigma (Mega S m-1) (frequency dependency in vasprun.xml)
       0.000      -0.000       0.000
       0.000       0.000       0.000
       0.000       0.000       0.000

 plasma frequency squared (from intraband transitions)

 plasma frequency squared (from interband transitions, int dw w eps(2)(w)
     164.439       0.000       0.000
       0.000     167.051       0.000
       0.000       0.000     167.051
 plasma frequency squared  (valence only):     552.148

  frequency dependent IMAGINARY DIELECTRIC FUNCTION (independent particle, no local field effects)
     E(ev)      X         Y         Z        XY        YZ        ZX
    0.000000    0.000000    0.000000    0.000000    0.000000    0.000000    0.000000
    0.236779    0.046578    0.048833    0.048833    0.000000    0.000000    0.000000
    0.473558    0.111333    0.116257    0.116257    0.000000    0.000000    0.000000
    0.710337    0.243780    0.252681    0.252681    0.000000    0.000000    0.000000
    0.947116    0.728145    0.747387    0.747387    0.000000    0.000000    0.000000
    1.183895    5.046919    5.119713    5.119713    0.000000    0.000000    0.000000
    1.420674    1.281352    1.300849    1.300849    0.000000    0.000000    0.000000
    1.657453    0.460658    0.520277    0.520277    0.000000    0.000000    0.000000
    1.894232    0.386337    0.544400    0.544400    0.000000    0.000000    0.000000
    2.131011    0.523310    1.345369    1.345369    0.000000    0.000000    0.000000
    2.367790    1.244689    2.773705    2.773705    0.000000    0.000000    0.000000
    2.604569    4.048532    3.116872    3.116872    0.000000    0.000000    0.000000
    2.841348    4.207393    5.931877    5.931877    0.000000    0.000000    0.000000
    3.078127    2.164406    3.239410    3.239410    0.000000    0.000000    0.000000
    3.314906    8.781620    9.289524    9.289524   -0.000000    0.000000    0.000000
    3.551685    9.415449    7.576932    7.576932   -0.000000    0.000000    0.000000
    3.788464    2.900194    4.861356    4.861356   -0.000000    0.000000    0.000000
    4.025243    4.086038    6.977660    6.977660    0.000000    0.000000    0.000000
    4.262022   12.548698    7.491150    7.491150    0.000000    0.000000    0.000000
    4.498801    8.319006    6.205854    6.205854    0.000000    0.000000    0.000000
    4.735580    6.207927    8.218318    8.218318    0.000000    0.000000    0.000000
    4.972359    8.029994   10.727230   10.727230    0.000000    0.000000    0.000000
    5.209138   12.439014   17.532168   17.532168    0.000000    0.000000   -0.000000
    5.445917   21.464320   16.081601   16.081601    0.000000    0.000000   -0.000000
    5.682696    9.643775   10.357537   10.357537    0.000000    0.000000   -0.000000
    5.919475    8.263513    8.322429    8.322429    0.000000    0.000000   -0.000000
    6.156254    7.808523    5.271102    5.271102   -0.000000    0.000000   -0.000000
    6.393033    6.426242    6.088167    6.088167   -0.000000    0.000000   -0.000000
    6.629812    5.161473    6.615620    6.615620   -0.000000    0.000000   -0.000000
    6.866591    7.369559   10.065359   10.065359   -0.000000    0.000000   -0.000000
    7.103370    5.187749    6.627270    6.627270    0.000000    0.000000   -0.000000
    7.340149    5.436164    4.365113    4.365113    0.000000    0.000000   -0.000000
    7.576928    3.024987    3.111236    3.111236    0.000000    0.000000    0.000000
    7.813707    2.758147    2.912396    2.912396    0.000000    0.000000    0.000000
    8.050486    2.441294    2.522312    2.522312   -0.000000    0.000000    0.000000
    8.287265    1.988522    1.553518    1.553518    0.000000    0.000000   -0.000000
    8.524044    1.879236    1.339874    1.339874    0.000000    0.000000   -0.000000
    8.760823    1.590823    1.273547    1.273547    0.000000    0.000000    0.000000
    8.997602    1.150506    1.240760    1.240760   -0.000000    0.000000    0.000000
    9.234381    0.960240    0.885657    0.885657   -0.000000    0.000000    0.000000
    9.471160    0.805799    0.613507    0.613507    0.000000    0.000000   -0.000000
    9.707939    0.675774    0.740551    0.740551    0.000000    0.000000    0.000000
    9.944718    0.863640    0.909163    0.909163   -0.000000    0.000000    0.000000
   10.181497    0.850799    0.864727    0.864727    0.000000    0.000000   -0.000000
   10.418276    0.682992    0.650509    0.650509    0.000000    0.000000    0.000000
   10.655055    0.589607    0.597120    0.597120   -0.000000    0.000000   -0.000000
   10.891834    0.551414    0.559911    0.559911   -0.000000    0.000000   -0.000000
   11.128613    0.304996    0.316143    0.316143    0.000000    0.000000    0.000000
   11.365392    0.221393    0.221032    0.221032   -0.000000    0.000000    0.000000
   11.602171    0.259362    0.254499    0.254499   -0.000000    0.000000   -0.000000
   11.838950    0.351880    0.337334    0.337334   -0.000000    0.000000    0.000000
   12.075729    0.300620    0.309516    0.309516    0.000000    0.000000    0.000000
   12.312508    0.303168    0.271103    0.271103    0.000000    0.000000   -0.000000
   12.549287    0.167174    0.191169    0.191169    0.000000    0.000000   -0.000000
   12.786066    0.099098    0.097696    0.097696    0.000000    0.000000   -0.000000
   13.022845    0.049881    0.049183    0.049183    0.000000    0.000000   -0.000000
   13.259624    0.036128    0.036148    0.036148    0.000000    0.000000    0.000000
   13.496403    0.030250    0.030349    0.030349    0.000000    0.000000    0.000000
   13.733182    0.026579    0.026696    0.026696    0.000000    0.000000    0.000000
   13.969961    0.023960    0.024079    0.024079    0.000000    0.000000    0.000000
[...]
   20.126215    0.005762    0.005765    0.005765    0.000000    0.000000   -0.000000
   20.362994    0.005408    0.005431    0.005431    0.000000    0.000000   -0.000000
   20.599773    0.005112    0.005145    0.005145    0.000000    0.000000    0.000000
   20.836552    0.004854    0.004893    0.004893    0.000000    0.000000    0.000000
   21.073331    0.004624    0.004665    0.004665    0.000000    0.000000    0.000000
   21.310110    0.004415    0.004458    0.004458    0.000000    0.000000    0.000000
   21.546889    0.004224    0.004268    0.004268    0.000000    0.000000    0.000000
   21.783668    0.004047    0.004091    0.004091    0.000000    0.000000    0.000000
   22.020447    0.003883    0.003927    0.003927    0.000000    0.000000    0.000000
   22.257226    0.003730    0.003773    0.003773    0.000000    0.000000    0.000000
   22.494005    0.003587    0.003629    0.003629    0.000000    0.000000    0.000000
   22.730784    0.003452    0.003493    0.003493    0.000000    0.000000    0.000000
   22.967563    0.003324    0.003365    0.003365    0.000000    0.000000    0.000000
   23.204342    0.003204    0.003244    0.003244    0.000000    0.000000    0.000000
   23.441121    0.003091    0.003129    0.003129    0.000000    0.000000    0.000000

  frequency dependent      REAL DIELECTRIC FUNCTION (independent particle, no local field effects)
     E(ev)      X         Y         Z        XY        YZ        ZX
    0.000000    7.774455    8.054197    8.054197    0.000000    0.000000    0.000000
    0.236779    7.827077    8.109427    8.109427    0.000000    0.000000    0.000000
    0.473558    8.003007    8.293619    8.293619    0.000000    0.000000    0.000000
    0.710337    8.381112    8.687327    8.687327    0.000000    0.000000    0.000000
    0.947116    9.248418    9.582517    9.582517    0.000000    0.000000    0.000000
    1.183895    9.416067    9.718226    9.718226    0.000000    0.000000    0.000000
    1.420674    5.523761    5.944964    5.944964    0.000000    0.000000    0.000000
    1.657453    6.913927    7.429987    7.429987    0.000000    0.000000    0.000000
    1.894232    7.827531    8.554407    8.554407    0.000000    0.000000    0.000000
    2.131011    8.824465   10.110567   10.110567    0.000000    0.000000    0.000000
    2.367790   10.423001    8.363115    8.363115    0.000000    0.000000    0.000000
    2.604569   10.036987   10.546194   10.546194    0.000000    0.000000    0.000000
    2.841348    6.704741    8.881271    8.881271   -0.000000    0.000000    0.000000
    3.078127   10.244504   10.549007   10.549007   -0.000000    0.000000    0.000000
    3.314906   13.573629    9.912156    9.912156   -0.000000    0.000000    0.000000
    3.551685    4.473938    6.749075    6.749075    0.000000    0.000000    0.000000
    3.788464    5.954608    6.934268    6.934268    0.000000    0.000000    0.000000
    4.025243   11.657472    6.372411    6.372411    0.000000    0.000000    0.000000
    4.262022    9.312702    7.240989    7.240989    0.000000    0.000000    0.000000
    4.498801    2.713371    7.858909    7.858909    0.000000    0.000000   -0.000000
    4.735580    3.951949    7.298899    7.298899    0.000000    0.000000    0.000000
    4.972359    7.868769    6.844328    6.844328    0.000000    0.000000   -0.000000
    5.209138   12.097308   10.654153   10.654153    0.000000    0.000000   -0.000000
    5.445917   -0.712334   -2.685288   -2.685288    0.000000    0.000000    0.000000
    5.682696   -6.297399   -4.575590   -4.575590   -0.000000    0.000000    0.000000
    5.919475   -1.170731   -4.021812   -4.021812   -0.000000    0.000000   -0.000000
    6.156254   -4.352074   -3.548097   -3.548097   -0.000000    0.000000   -0.000000
    6.393033   -4.174434   -0.837169   -0.837169   -0.000000    0.000000   -0.000000
    6.629812   -1.928211   -0.309756   -0.309756   -0.000000    0.000000   -0.000000
    6.866591   -3.309652   -2.945702   -2.945702    0.000000    0.000000   -0.000000
    7.103370   -4.345077   -5.990861   -5.990861    0.000000    0.000000    0.000000
    7.340149   -4.074921   -5.427928   -5.427928   -0.000000    0.000000    0.000000
    7.576928   -4.577446   -4.537818   -4.537818   -0.000000    0.000000    0.000000
    7.813707   -3.372670   -3.736089   -3.736089   -0.000000    0.000000    0.000000
    8.050486   -3.076442   -4.130096   -4.130096   -0.000000    0.000000   -0.000000
    8.287265   -2.921632   -3.390435   -3.390435   -0.000000    0.000000   -0.000000
    8.524044   -3.082304   -3.122125   -3.122125   -0.000000    0.000000    0.000000
    8.760823   -2.787434   -2.446828   -2.446828   -0.000000    0.000000    0.000000
    8.997602   -2.515134   -2.417362   -2.417362   -0.000000    0.000000   -0.000000
    9.234381   -2.013282   -2.284438   -2.284438   -0.000000    0.000000   -0.000000
    9.471160   -2.051336   -1.877624   -1.877624   -0.000000    0.000000   -0.000000
    9.707939   -1.522877   -1.443549   -1.443549   -0.000000    0.000000    0.000000
    9.944718   -1.278041   -1.319414   -1.319414   -0.000000    0.000000   -0.000000
   10.181497   -1.375613   -1.465371   -1.465371   -0.000000    0.000000   -0.000000
   10.418276   -1.450150   -1.432316   -1.432316   -0.000000    0.000000   -0.000000
   10.655055   -1.199156   -1.223347   -1.223347   -0.000000    0.000000   -0.000000
   10.891834   -1.247168   -1.234803   -1.234803   -0.000000    0.000000   -0.000000
   11.128613   -1.072985   -1.128318   -1.128318   -0.000000    0.000000   -0.000000
   11.365392   -0.877733   -0.890062   -0.890062   -0.000000    0.000000   -0.000000
   11.602171   -0.669823   -0.707825   -0.707825   -0.000000    0.000000   -0.000000
   11.838950   -0.610104   -0.652884   -0.652884   -0.000000    0.000000   -0.000000
   12.075729   -0.656523   -0.664835   -0.664835   -0.000000    0.000000   -0.000000
   12.312508   -0.609421   -0.631410   -0.631410   -0.000000    0.000000   -0.000000
   12.549287   -0.595756   -0.599306   -0.599306   -0.000000    0.000000   -0.000000
   12.786066   -0.480166   -0.500476   -0.500476   -0.000000    0.000000   -0.000000
   13.022845   -0.379523   -0.393607   -0.393607   -0.000000    0.000000   -0.000000
   13.259624   -0.283648   -0.297815   -0.297815   -0.000000    0.000000   -0.000000
   13.496403   -0.206228   -0.220209   -0.220209   -0.000000    0.000000   -0.000000
   13.733182   -0.139426   -0.153141   -0.153141   -0.000000    0.000000   -0.000000
   13.969961   -0.079860   -0.093293   -0.093293   -0.000000    0.000000   -0.000000
[...]
   20.126215    0.535119    0.529098    0.529098   -0.000000    0.000000   -0.000000
   20.362994    0.548319    0.542333    0.542333   -0.000000    0.000000   -0.000000
   20.599773    0.560757    0.554842    0.554842   -0.000000    0.000000   -0.000000
   20.836552    0.572544    0.566716    0.566716   -0.000000    0.000000   -0.000000
   21.073331    0.583756    0.578024    0.578024   -0.000000    0.000000   -0.000000
   21.310110    0.594450    0.588819    0.588819   -0.000000    0.000000   -0.000000
   21.546889    0.604672    0.599144    0.599144   -0.000000    0.000000   -0.000000
   21.783668    0.614460    0.609036    0.609036   -0.000000    0.000000   -0.000000
   22.020447    0.623845    0.618524    0.618524   -0.000000    0.000000   -0.000000
   22.257226    0.632854    0.627636    0.627636   -0.000000    0.000000   -0.000000
   22.494005    0.641514    0.636396    0.636396   -0.000000    0.000000   -0.000000
   22.730784    0.649843    0.644824    0.644824   -0.000000    0.000000   -0.000000
   22.967563    0.657863    0.652941    0.652941   -0.000000    0.000000   -0.000000
   23.204342    0.665590    0.660763    0.660763   -0.000000    0.000000   -0.000000
   23.441121    0.673040    0.668306    0.668306   -0.000000    0.000000   -0.000000

 The outermost node in the dielectric function lies at epsilon=  14.4

 total charge

# of ion     s       p       d       tot
  1        0.541   0.460   9.785  10.786
  2        0.541   0.460   9.785  10.786
  3        1.438   2.418   0.032   3.887
  4        1.438   2.418   0.032   3.887
tot        3.957   5.757  19.634  29.347