 vasp.5.4.1 24Jun15 (build Sep 15 2015 10:29:54) complex

 executed on           IFC91_ompi date 2017.08.22  11:22:09

 INCAR:
 POTCAR:    PAW_PBE Zn 06Sep2000
 POTCAR:    PAW_PBE S 06Sep2000

 POTCAR:    PAW_PBE Zn 06Sep2000
   VRHFIN =Zn: d10 p2

   TITEL  = PAW_PBE Zn 06Sep2000
   POMASS =   65.390; ZVAL   =   12.000    mass and valenz
   ENMAX  =  276.723; ENMIN  =  207.542 eV

 POTCAR:    PAW_PBE S 06Sep2000
   VRHFIN =S : s2p4

   TITEL  = PAW_PBE S 06Sep2000
   POMASS =   32.066; ZVAL   =    6.000    mass and valenz
   ENMAX  =  258.689; ENMIN  =  194.016 eV

  PAW_PBE Zn 06Sep2000                  :
  PAW_PBE S 06Sep2000                   :

 POSCAR: Zn Se
  positions in direct lattice
  velocities in cartesian coordinates
 exchange correlation table for  LEXCH =       14
   RHO(1)=    0.500       N(1)  =     2000
   RHO(2)=  100.500       N(2)  =     4000

 ion  position               nearest neighbor table
   1  0.000  0.000  0.000-   3 2.38   4 2.38   4 2.38   3 2.38
   2  0.500  0.500  0.500-   3 2.38   4 2.38   3 2.38   4 2.38
   3  0.250  0.500  0.000-   1 2.38   2 2.38   2 2.38   1 2.38
   4  0.750  0.000  0.500-   1 2.38   2 2.38   1 2.38   2 2.38

  LATTYP: Found a simple tetragonal cell.
 ALAT       =     3.8875988340
 C/A-ratio  =     1.4164088251

  Lattice vectors:

 A1 = (   0.0000000000,   3.8875988340,   0.0000000000)
 A2 = (   0.0000000000,   0.0000000000,  -3.8875988340)
 A3 = (  -5.5064292969,   0.0000000000,   0.0000000000)

Analysis of symmetry for initial positions (statically):
 Subroutine PRICEL returns following result:

  LATTYP: Found a body centered tetragonal cell.
 ALAT       =     3.8875988340
 C/A-ratio  =     1.4164088251

[...]

   2 primitive cells build up your supercell.

 Routine SETGRP: Setting up the symmetry group for a
 simple tetragonal supercell.

 Subroutine GETGRP returns: Found  8 space group operations
 (whereof  8 operations were pure point group operations)
 out of a pool of 16 trial point group operations.

The static configuration has the point symmetry D_2d.

Analysis of symmetry for dynamics (positions and initial velocities):
 Subroutine PRICEL returns following result:

  LATTYP: Found a body centered tetragonal cell.
 ALAT       =     3.8875988340
 C/A-ratio  =     1.4164088251

  Lattice vectors:

 A1 = (   2.7532146484,   1.9437994170,  -1.9437994170)
 A2 = (   2.7532146484,  -1.9437994170,   1.9437994170)
 A3 = (  -2.7532146484,  -1.9437994170,  -1.9437994170)

   2 primitive cells build up your supercell.

 Routine SETGRP: Setting up the symmetry group for a
 simple tetragonal supercell.

 Subroutine GETGRP returns: Found  8 space group operations
 (whereof  8 operations were pure point group operations)
 out of a pool of 16 trial point group operations.

The dynamic configuration has the point symmetry D_2d.

 KPOINTS: Automatically generated k-point mesh

Automatic generation of k-mesh.
Space group operators:
 irot       det(A)        alpha          n_x          n_y          n_z        tau_x        tau_y        tau_z
    1     1.000000     0.000000     1.000000     0.000000     0.000000     0.000000     0.000000     0.000000
    2    -1.000000    90.000000     1.000000     0.000000     0.000000     0.000000     0.000000     0.000000
    3     1.000000   180.000000     1.000000     0.000000     0.000000     0.000000     0.000000     0.000000
    4    -1.000000    90.000000    -1.000000     0.000000     0.000000     0.000000     0.000000     0.000000
    5    -1.000000   180.000000     0.000000     0.000000     1.000000     0.000000     0.000000     0.000000
    6     1.000000   180.000000     0.000000    -0.707107     0.707107     0.000000     0.000000     0.000000
    7    -1.000000   180.000000     0.000000     1.000000     0.000000     0.000000     0.000000     0.000000
    8     1.000000   180.000000     0.000000     0.707107     0.707107     0.000000     0.000000     0.000000

 Subroutine IBZKPT returns following result:

 Found     30 irreducible k-points:

 Following reciprocal coordinates:
            Coordinates               Weight
  0.000000  0.000000  0.000000      1.000000
  0.200000  0.000000  0.000000      2.000000
  0.400000  0.000000  0.000000      2.000000
  0.000000  0.142857  0.000000      4.000000
  0.200000  0.142857  0.000000      8.000000
  0.400000  0.142857  0.000000      8.000000
  0.000000  0.285714  0.000000      4.000000
  0.200000  0.285714  0.000000      8.000000
  0.400000  0.285714  0.000000      8.000000
  0.000000  0.428571  0.000000      4.000000
  0.200000  0.428571  0.000000      8.000000
  0.400000  0.428571  0.000000      8.000000
  0.000000  0.142857  0.142857      4.000000
  0.200000  0.142857  0.142857      8.000000
  0.400000  0.142857  0.142857      8.000000
  0.000000  0.285714  0.142857      8.000000
  0.200000  0.285714  0.142857     16.000000
  0.400000  0.285714  0.142857     16.000000
  0.000000  0.428571  0.142857      8.000000
  0.200000  0.428571  0.142857     16.000000
  0.400000  0.428571  0.142857     16.000000
  0.000000  0.285714  0.285714      4.000000
  0.200000  0.285714  0.285714      8.000000
  0.400000  0.285714  0.285714      8.000000
  0.000000  0.428571  0.285714      8.000000
  0.200000  0.428571  0.285714     16.000000
  0.400000  0.428571  0.285714     16.000000
  0.000000  0.428571  0.428571      4.000000
  0.200000  0.428571  0.428571      8.000000
  0.400000  0.428571  0.428571      8.000000

 Following cartesian coordinates:
            Coordinates               Weight
  0.000000  0.000000  0.000000      1.000000
  0.036321  0.000000  0.000000      2.000000
  0.072642  0.000000  0.000000      2.000000
  0.000000  0.036747  0.000000      4.000000
  0.036321  0.036747  0.000000      8.000000
  0.072642  0.036747  0.000000      8.000000
  0.000000  0.073494  0.000000      4.000000
  0.036321  0.073494  0.000000      8.000000
  0.072642  0.073494  0.000000      8.000000
  0.000000  0.110241  0.000000      4.000000
  0.036321  0.110241  0.000000      8.000000
  0.072642  0.110241  0.000000      8.000000
  0.000000  0.036747  0.036747      4.000000
  0.036321  0.036747  0.036747      8.000000
  0.072642  0.036747  0.036747      8.000000
  0.000000  0.073494  0.036747      8.000000
  0.036321  0.073494  0.036747     16.000000
  0.072642  0.073494  0.036747     16.000000
  0.000000  0.110241  0.036747      8.000000
  0.036321  0.110241  0.036747     16.000000
  0.072642  0.110241  0.036747     16.000000
  0.000000  0.073494  0.073494      4.000000
  0.036321  0.073494  0.073494      8.000000
  0.072642  0.073494  0.073494      8.000000
  0.000000  0.110241  0.073494      8.000000
  0.036321  0.110241  0.073494     16.000000
  0.072642  0.110241  0.073494     16.000000
  0.000000  0.110241  0.110241      4.000000
  0.036321  0.110241  0.110241      8.000000
  0.072642  0.110241  0.110241      8.000000

 I would recommend the setting:
   dimension x,y,z NGX =    30 NGY =   21 NGZ =   21
 SYSTEM =  Name
 POSCAR =  Zn Se

 Startparameter for this run:
   NWRITE =      2    write-flag & timer
   PREC   = single    normal or accurate (medium, high low for compatibility)
   ISTART =      0    job   : 0-new  1-cont  2-samecut
   ICHARG =      2    charge: 1-file 2-atom 10-const
   ISPIN  =      1    spin polarized calculation?
   LNONCOLLINEAR =      F non collinear calculations
   LSORBIT =      F    spin-orbit coupling
   INIWAV =      1    electr: 0-lowe 1-rand  2-diag
   LASPH  =      F    aspherical Exc in radial PAW
   METAGGA=      F    non-selfconsistent MetaGGA calc.

 Electronic Relaxation 1
   ENCUT  =  500.0 eV  36.75 Ry    6.06 a.u.  10.04  7.09  7.09*2*pi/ulx,y,z
   ENINI  =  500.0     initial cutoff
   ENAUG  =  575.9 eV  augmentation charge cutoff
   NELM   =     60;   NELMIN=  2; NELMDL= -5     # of ELM steps
   EDIFF  = 0.1E-05   stopping-criterion for ELM
   LREAL  =      F    real-space projection
   NLSPLINE    = F    spline interpolate recip. space projectors
   LCOMPAT=      F    compatible to vasp.4.4
   GGA_COMPAT  = T    GGA compatible to vasp.4.4-vasp.4.6
   LMAXPAW     = -100 max onsite density
   LMAXMIX     =    2 max onsite mixed and CHGCAR
   VOSKOWN=      0    Vosko Wilk Nusair interpolation
   ROPT   =    0.00000   0.00000
 Ionic relaxation
   EDIFFG = 0.1E-02   stopping-criterion for IOM
   NSW    =      0    number of steps for IOM
   NBLOCK =      1;   KBLOCK =      1    inner block; outer block
   IBRION =     -1    ionic relax: 0-MD 1-quasi-New 2-CG
   NFREE  =      0    steps in history (QN), initial steepest desc. (CG)
   ISIF   =      3    stress and relaxation
   IWAVPR =     10    prediction:  0-non 1-charg 2-wave 3-comb
   ISYM   =      2    0-nonsym 1-usesym 2-fastsym
   LCORR  =      T    Harris-Foulkes like correction to forces

   POTIM  = 0.5000    time-step for ionic-motion
   TEIN   =    0.0    initial temperature
   TEBEG  =    0.0;   TEEND  =   0.0 temperature during run
   SMASS  =  -3.00    Nose mass-parameter (am)
   estimated Nose-frequenzy (Omega)   =  0.10E-29 period in steps =****** mass=  -0.693E-27a.u.
   SCALEE = 1.0000    scale energy and forces
   NPACO  =    256;   APACO  = 16.0  distance and # of slots for P.C.
   PSTRESS=    0.0 pullay stress

  Mass of Ions in am
   POMASS =  65.39 32.07
  Ionic Valenz
   ZVAL   =  12.00  6.00
  Atomic Wigner-Seitz radii
  virtual crystal weights
   VCA    =   1.00  1.00
   NELECT =      36.0000    total number of electrons
   NUPDOWN=      -1.0000    fix difference up-down

 DOS related values:
   EMIN   =  10.00;   EMAX   =-10.00  energy-range for DOS
   EFERMI =   0.00
   ISMEAR =     0;   SIGMA  =   0.01  broadening in eV -4-tet -1-fermi 0-gaus

 Electronic relaxation 2 (details)
   IALGO  =     38    algorithm
   LDIAG  =      T    sub-space diagonalisation (order eigenvalues)
   LSUBROT=      F    optimize rotation matrix (better conditioning)
   TURBO    =      0    0=normal 1=particle mesh
   IRESTART =      0    0=no restart 2=restart with 2 vectors
   NREBOOT  =      0    no. of reboots
   NMIN     =      0    reboot dimension
   EREF     =   0.00    reference energy to select bands
   IMIX   =      4    mixing-type and parameters
     AMIX     =   0.40;   BMIX     =  1.00
     AMIX_MAG =   1.60;   BMIX_MAG =  1.00
     AMIN     =   0.01
     WC   =   100.;   INIMIX=   1;  MIXPRE=   1;  MAXMIX= -45

 Intra band minimization:
   WEIMIN = 0.0000     energy-eigenvalue tresh-hold
   EBREAK =  0.10E-07  absolut break condition
   DEPER  =   0.30     relativ break condition

   TIME   =   0.40     timestep for ELM

  volume/ion in A,a.u.               =      20.81       140.40
  Fermi-wavevector in a.u.,A,eV,Ry     =   1.238126  2.339718 20.857117  1.532955
  Thomas-Fermi vector in A             =   2.372664

 Write flags
   LWAVE  =      F    write WAVECAR
   LCHARG =      T    write CHGCAR
   LVTOT  =      F    write LOCPOT, total local potential
   LVHAR  =      T    write LOCPOT, Hartree potential only
   LELF   =      F    write electronic localiz. function (ELF)
   LORBIT =     10    0 simple, 1 ext, 2 COOP (PROOUT)

 Dipole corrections
   LMONO  =      F    monopole corrections only (constant potential shift)
[...]
  E(xc)    -183.78032  -183.77261  -183.77261     0.00000     0.00000     0.00000
  Local     -20.82240   -18.68174   -18.68174     0.00000     0.00000    -0.00000
  n-local    76.56640    74.14482    78.99517    -0.71593    -0.05344     0.21545
  augment    44.21330    44.14578    44.14578    -0.00000     0.00000     0.00000
  Kinetic   301.09527   295.93561   306.47117    -0.76060    -1.26370     1.24136
  Fock        0.00000     0.00000     0.00000     0.00000     0.00000     0.00000
  Total      -2.70720    -2.69535    -2.69535     0.00000     0.00000     0.00000
  in kB     -52.11924   -51.89117   -51.89117     0.00000     0.00000     0.00000

 VOLUME and BASIS-vectors are now :
  energy-cutoff  :      500.00
  volume of cell :       83.22
      direct lattice vectors                 reciprocal lattice vectors
     5.506429297  0.000000000  0.000000000     0.181605891  0.000000000  0.000000000
     0.000000000  3.887598834  0.000000000     0.000000000  0.257228187  0.000000000
     0.000000000  0.000000000  3.887598834     0.000000000  0.000000000  0.257228187

  length of vectors
     5.506429297  3.887598834  3.887598834     0.181605891  0.257228187  0.257228187

 FORCES acting on ions
    electron-ion (+dipol)            ewald-force                    non-local-force                 convergence-correction
   0.242E-04 0.880E-15 -.279E-13   -.114E-12 0.285E-15 -.896E-14   0.000E+00 0.000E+00 0.000E+00   -.166E-12 0.773E-15 -.138E-13
   0.242E-04 0.248E-11 0.246E-11   -.114E-12 0.733E-14 -.724E-14   0.000E+00 0.000E+00 0.000E+00   0.455E-14 -.338E-13 -.599E-13
   0.140E-04 -.136E-13 -.424E-05   0.111E-12 -.217E-14 0.559E-14   0.000E+00 0.000E+00 0.347E-17   0.410E-13 -.266E-14 0.434E-14
   0.140E-04 -.116E-14 -.424E-05   0.117E-12 -.228E-14 0.673E-14   0.000E+00 0.000E+00 0.347E-17   0.511E-13 0.255E-14 -.257E-15
   0.764E-04 0.246E-11 -.848E-05   0.199E-17 0.317E-14 -.388E-14   0.000E+00 0.000E+00 0.694E-17   -.690E-13 -.331E-13 -.697E-13

 POSITION                                       TOTAL-FORCE (eV/Angst)
      0.00000      0.00000      0.00000        -0.000000     -0.000000      0.000000
      2.75321      1.94380      1.94380        -0.000000      0.000000      0.000000
      1.37661      1.94380      0.00000         0.000000     -0.000000     -0.000000
      4.12982      0.00000      1.94380         0.000000     -0.000000     -0.000000
    total drift:                                0.000076      0.000000     -0.000008

  FREE ENERGIE OF THE ION-ELECTRON SYSTEM (eV)
  free  energy   TOTEN  =       -15.07727237 eV

  energy  without entropy=      -15.07727237  energy(sigma->0) =      -15.07727237

 plasma frequency squared (from intraband transitions)
       0.000       0.000       0.000
       0.000       0.000       0.000
       0.000       0.000       0.000

 electrical conductivity sigma (Mega S m-1) (frequency dependency in vasprun.xml)
       0.000       0.000       0.000
       0.000       0.000       0.000
       0.000       0.000       0.000

 plasma frequency squared (from intraband transitions)

 plasma frequency squared (from interband transitions, int dw w eps(2)(w)
     186.693       0.000      -0.000
      -0.000     186.738       0.000
      -0.000       0.000     186.738
 plasma frequency squared  (valence only):     596.476

  frequency dependent IMAGINARY DIELECTRIC FUNCTION (independent particle, no local field effects)
     E(ev)      X         Y         Z        XY        YZ        ZX
    0.000000    0.000000    0.000000    0.000000    0.000000    0.000000    0.000000
    0.275056    0.015126    0.015868    0.015868   -0.000000    0.000000    0.000000
    0.550111    0.032351    0.033969    0.033969   -0.000000    0.000000    0.000000
    0.825167    0.055387    0.058233    0.058233   -0.000000    0.000000    0.000000
    1.100223    0.094848    0.099828    0.099828   -0.000000    0.000000    0.000000
    1.375278    0.203106    0.213931    0.213931    0.000000    0.000000    0.000000
    1.650334    1.093506    1.164356    1.164356    0.000000    0.000000    0.000000
    1.925390    0.703689    0.708175    0.708175    0.000000    0.000000    0.000000
    2.200446    0.297765    0.367681    0.367681    0.000000    0.000000    0.000000
    2.475501    0.397755    0.874997    0.874997    0.000000    0.000000    0.000000
    2.750557    1.445756    1.642139    1.642139    0.000000    0.000000    0.000000
    3.025613    2.633393    2.074603    2.074603    0.000000    0.000000    0.000000
    3.300668    1.607405    2.165417    2.165417    0.000000    0.000000    0.000000
    3.575724    3.673071    3.169383    3.169383   -0.000000    0.000000    0.000000
    3.850780    5.422751    6.128437    6.128437   -0.000000    0.000000    0.000000
    4.125835    3.522268    5.017499    5.017499    0.000000    0.000000    0.000000
    4.400891    3.494147    6.002536    6.002536   -0.000000    0.000000    0.000000
    4.675947    9.890658    6.051948    6.051948   -0.000000    0.000000    0.000000
    4.951002    5.874668    5.402468    5.402468    0.000000    0.000000    0.000000
    5.226058    5.647596    8.000301    8.000301    0.000000    0.000000   -0.000000
    5.501114    7.558386    9.735278    9.735278    0.000000    0.000000    0.000000
    5.776170   19.503195   15.239967   15.239967   -0.000000    0.000000    0.000000
    6.051225    8.576444    9.306696    9.306696   -0.000000    0.000000   -0.000000
    6.326281    8.770703    7.695152    7.695152   -0.000000    0.000000   -0.000000
    6.601337    9.152087    6.906756    6.906756   -0.000000    0.000000    0.000000
    6.876392    5.929059    6.779687    6.779687   -0.000000    0.000000   -0.000000
    7.151448    9.150991    9.164267    9.164267   -0.000000    0.000000   -0.000000
    7.426504    5.957100    8.235141    8.235141    0.000000    0.000000   -0.000000
    7.701559    7.765776    6.879215    6.879215   -0.000000    0.000000   -0.000000
    7.976615    5.904253    5.821184    5.821184   -0.000000    0.000000   -0.000000
    8.251671    6.219619    5.426460    5.426460   -0.000000    0.000000   -0.000000
    8.526726    3.888665    3.814013    3.814013   -0.000000    0.000000    0.000000
    8.801782    3.380158    3.520864    3.520864   -0.000000    0.000000    0.000000
    9.076838    2.367629    2.332657    2.332657   -0.000000    0.000000   -0.000000
    9.351893    1.936940    1.716939    1.716939    0.000000    0.000000   -0.000000
    9.626949    1.340292    1.453003    1.453003    0.000000    0.000000   -0.000000
    9.902005    1.539626    1.997145    1.997145    0.000000    0.000000    0.000000
   10.177061    1.477085    1.588676    1.588676    0.000000    0.000000    0.000000
   10.452116    1.173308    1.186490    1.186490   -0.000000    0.000000    0.000000
   10.727172    1.024591    1.039570    1.039570   -0.000000    0.000000   -0.000000
   11.002228    0.640198    0.817709    0.817709    0.000000    0.000000   -0.000000
   11.277283    0.459613    0.428593    0.428593   -0.000000    0.000000   -0.000000
   11.552339    0.505237    0.462723    0.462723   -0.000000    0.000000   -0.000000
   11.827395    0.616360    0.541760    0.541760   -0.000000    0.000000   -0.000000
   12.102450    0.488153    0.481193    0.481193    0.000000    0.000000   -0.000000
   12.377506    0.378395    0.429204    0.429204    0.000000    0.000000    0.000000
   12.652562    0.365040    0.404949    0.404949    0.000000    0.000000   -0.000000
   12.927617    0.376920    0.393314    0.393314    0.000000    0.000000   -0.000000
   13.202673    0.409840    0.375859    0.375859   -0.000000    0.000000    0.000000
   13.477729    0.256022    0.248861    0.248861   -0.000000    0.000000    0.000000
   13.752785    0.139209    0.165755    0.165755   -0.000000    0.000000    0.000000
   14.027840    0.136312    0.111566    0.111566   -0.000000    0.000000   -0.000000
   14.302896    0.066568    0.074103    0.074103   -0.000000    0.000000    0.000000
   14.577952    0.044458    0.058010    0.058010   -0.000000    0.000000    0.000000
   14.853007    0.036664    0.040368    0.040368   -0.000000    0.000000   -0.000000
   15.128063    0.033571    0.036552    0.036552   -0.000000    0.000000   -0.000000
   15.403119    0.039065    0.034357    0.034357   -0.000000    0.000000   -0.000000
   15.678174    0.042733    0.039904    0.039904   -0.000000    0.000000   -0.000000
   15.953230    0.051345    0.049478    0.049478   -0.000000    0.000000   -0.000000
   16.228286    0.043545    0.052480    0.052480   -0.000000    0.000000   -0.000000
[...]
   23.379734    0.003701    0.003717    0.003717   -0.000000    0.000000   -0.000000
   23.654789    0.003548    0.003561    0.003561   -0.000000    0.000000   -0.000000
   23.929845    0.003404    0.003415    0.003415   -0.000000    0.000000   -0.000000
   24.204901    0.003268    0.003278    0.003278   -0.000000    0.000000   -0.000000
   24.479956    0.003140    0.003148    0.003148   -0.000000    0.000000   -0.000000
   24.755012    0.003020    0.003027    0.003027   -0.000000    0.000000   -0.000000
   25.030068    0.002905    0.002912    0.002912   -0.000000    0.000000   -0.000000
   25.305124    0.002797    0.002803    0.002803   -0.000000    0.000000   -0.000000
   25.580179    0.002694    0.002700    0.002700   -0.000000    0.000000   -0.000000
   25.855235    0.002597    0.002602    0.002602   -0.000000    0.000000   -0.000000
   26.130291    0.002504    0.002509    0.002509   -0.000000    0.000000   -0.000000
   26.405346    0.002416    0.002420    0.002420   -0.000000    0.000000   -0.000000
   26.680402    0.002333    0.002336    0.002336   -0.000000    0.000000   -0.000000
   26.955458    0.002253    0.002256    0.002256   -0.000000    0.000000   -0.000000
   27.230513    0.002177    0.002180    0.002180   -0.000000    0.000000   -0.000000

  frequency dependent      REAL DIELECTRIC FUNCTION (independent particle, no local field effects)
     E(ev)      X         Y         Z        XY        YZ        ZX
    0.000000    6.142930    6.205942    6.205942   -0.000000    0.000000    0.000000
    0.275056    6.163402    6.227413    6.227413   -0.000000    0.000000    0.000000
    0.550111    6.227483    6.294664    6.294664   -0.000000    0.000000    0.000000
    0.825167    6.345003    6.418138    6.418138   -0.000000    0.000000    0.000000
    1.100223    6.541850    6.625225    6.625225   -0.000000    0.000000    0.000000
    1.375278    6.900179    7.002402    7.002402   -0.000000    0.000000    0.000000
    1.650334    7.658585    7.778416    7.778416   -0.000000    0.000000    0.000000
    1.925390    5.905628    6.079470    6.079470   -0.000000    0.000000    0.000000
    2.200446    6.817976    7.091908    7.091908   -0.000000    0.000000    0.000000
    2.475501    7.673310    8.280497    8.280497   -0.000000    0.000000    0.000000
    2.750557    9.074974    7.556603    7.556603   -0.000000    0.000000    0.000000
    3.025613    8.681124    8.603112    8.603112    0.000000    0.000000    0.000000
    3.300668    7.416360    6.893146    6.893146   -0.000000    0.000000    0.000000
    3.575724   10.199520   10.174847   10.174847   -0.000000    0.000000    0.000000
    3.850780    9.785626    8.710171    8.710171    0.000000    0.000000    0.000000
    4.125835    5.441438    6.663706    6.663706   -0.000000    0.000000    0.000000
    4.400891   10.827827    8.142176    8.142176   -0.000000    0.000000    0.000000
    4.675947    5.607265    5.582329    5.582329    0.000000    0.000000   -0.000000
    4.951002    5.718484    7.514221    7.514221    0.000000    0.000000   -0.000000
    5.226058    6.200107    7.661270    7.661270   -0.000000    0.000000   -0.000000
    5.501114   10.949296   10.283900   10.283900   -0.000000    0.000000    0.000000
    5.776170    3.319876   -0.113036   -0.113036   -0.000000    0.000000   -0.000000
    6.051225   -2.503554   -1.717600   -1.717600   -0.000000    0.000000   -0.000000
    6.326281    0.156600    0.061297    0.061297   -0.000000    0.000000   -0.000000
    6.601337   -0.455694    0.801737    0.801737    0.000000    0.000000   -0.000000
    6.876392    0.377368    1.031812    1.031812    0.000000    0.000000   -0.000000
    7.151448   -0.808822    1.054427    1.054427    0.000000    0.000000   -0.000000
    7.426504   -1.553761   -2.837729   -2.837729   -0.000000    0.000000   -0.000000
    7.701559   -3.277699   -3.733978   -3.733978   -0.000000    0.000000   -0.000000
    7.976615   -2.030817   -2.557172   -2.557172    0.000000    0.000000   -0.000000
    8.251671   -2.761698   -3.894511   -3.894511    0.000000    0.000000    0.000000
    8.526726   -4.746502   -3.990722   -3.990722    0.000000    0.000000    0.000000
    8.801782   -3.934001   -3.935550   -3.935550    0.000000    0.000000   -0.000000
    9.076838   -3.347906   -3.417952   -3.417952    0.000000    0.000000   -0.000000
    9.351893   -2.844893   -2.744965   -2.744965    0.000000    0.000000    0.000000
    9.626949   -2.640854   -2.305566   -2.305566    0.000000    0.000000    0.000000
    9.902005   -1.940611   -1.880421   -1.880421    0.000000    0.000000    0.000000
   10.177061   -2.346758   -2.380758   -2.380758    0.000000    0.000000    0.000000
   10.452116   -1.898878   -2.054046   -2.054046    0.000000    0.000000   -0.000000
   10.727172   -1.973073   -1.914339   -1.914339    0.000000    0.000000    0.000000
   11.002228   -1.810004   -1.818016   -1.818016    0.000000    0.000000    0.000000
   11.277283   -1.403419   -1.484448   -1.484448    0.000000    0.000000    0.000000
   11.552339   -1.135649   -1.197210   -1.197210    0.000000    0.000000    0.000000
   11.827395   -0.994052   -0.999562   -0.999562    0.000000    0.000000    0.000000
   12.102450   -1.029389   -0.934977   -0.934977    0.000000    0.000000    0.000000
   12.377506   -0.880914   -0.862782   -0.862782    0.000000    0.000000    0.000000
   12.652562   -0.726201   -0.744691   -0.744691    0.000000    0.000000    0.000000
   12.927617   -0.658296   -0.724914   -0.724914    0.000000    0.000000    0.000000
   13.202673   -0.732285   -0.688084   -0.688084    0.000000    0.000000    0.000000
   13.477729   -0.643699   -0.648922   -0.648922    0.000000    0.000000    0.000000
   13.752785   -0.545207   -0.568110   -0.568110    0.000000    0.000000    0.000000
   14.027840   -0.451869   -0.443714   -0.443714    0.000000    0.000000    0.000000
   14.302896   -0.364246   -0.350972   -0.350972    0.000000    0.000000    0.000000
   14.577952   -0.266687   -0.264746   -0.264746    0.000000    0.000000    0.000000
   14.853007   -0.181332   -0.187748   -0.187748    0.000000    0.000000    0.000000
   15.128063   -0.106912   -0.116788   -0.116788    0.000000    0.000000    0.000000
   15.403119   -0.045093   -0.048467   -0.048467    0.000000    0.000000    0.000000
   15.678174    0.006938    0.011203    0.011203    0.000000    0.000000    0.000000
   15.953230    0.050139    0.045464    0.045464    0.000000    0.000000    0.000000
   16.228286    0.085338    0.082900    0.082900    0.000000    0.000000    0.000000
[...]
   23.379734    0.617917    0.617460    0.617460    0.000000    0.000000    0.000000
   23.654789    0.627883    0.627465    0.627465    0.000000    0.000000    0.000000
   23.929845    0.637441    0.637055    0.637055    0.000000    0.000000    0.000000
   24.204901    0.646615    0.646256    0.646256    0.000000    0.000000    0.000000
   24.479956    0.655426    0.655091    0.655091    0.000000    0.000000    0.000000
   24.755012    0.663895    0.663581    0.663581    0.000000    0.000000    0.000000
   25.030068    0.672041    0.671746    0.671746    0.000000    0.000000    0.000000
   25.305124    0.679881    0.679603    0.679603    0.000000    0.000000    0.000000
   25.580179    0.687431    0.687168    0.687168    0.000000    0.000000    0.000000
   25.855235    0.694706    0.694457    0.694457    0.000000    0.000000    0.000000
   26.130291    0.701721    0.701483    0.701483    0.000000    0.000000    0.000000
   26.405346    0.708486    0.708261    0.708261    0.000000    0.000000    0.000000
   26.680402    0.715017    0.714801    0.714801    0.000000    0.000000    0.000000
   26.955458    0.721322    0.721117    0.721117    0.000000    0.000000    0.000000
   27.230513    0.727413    0.727217    0.727217    0.000000    0.000000    0.000000

 The outermost node in the dielectric function lies at epsilon=  15.7

 total charge

# of ion     s       p       d       tot
  1        0.512   0.438   9.793  10.743
  2        0.512   0.438   9.793  10.743
  3        1.312   2.384   0.000   3.695
  4        1.312   2.384   0.000   3.695
tot        3.646   5.644  19.586  28.876